000 000 000 000 000 000 000 000 -99 -99 -99 -99 000 000 000 -99 -99 -99 -99 001 046 007 000 000 000 000 000 000 -99 -99 -99
-99 -99 000 000 000 000 000 000 000 000 -99 -99 -99 000 000 000 -99 -99 -99 -99 001 000 000 000 000 000 -99 000 -99 -99 -99
-99 000 000 000 000 000 000 000 000 000 000 -99 -99 000 000 000 -99 -99 -99 000 000 000 000 000 000 000 000 000 -99 -99 -99
000 000 000 000 000 000 000 000 000 000 -99 -99 -99 -99 000 -99 -99 -99 -99 000 000 000 000 000 000 000 000 000 -99 -99 -99
000 000 000 000 000 000 000 000 000 000 000 -99 -99 -99 -99 000 -99 -99 -99 -99 000 000 000 000 000 -99 -99 -99 -99 -99 -99
000 000 000 000 000 000 000 000 000 000 000 -99 000 000 000 000 -99 000 -99 000 000 000 000 000 -99 -99 -99 -99 -99 -99 -99
000 000 000 000 000 000 000 000 000 000 000 -99 000 000 000 000 000 000 000 000 000 000 000 000 000 -99 -99 -99 -99 -99 -99
000 000 000 000 000 000 000 000 000 000 000 000 -99 000 000 000 000 000 000 000 000 000 000 000 000 -99 -99 -99 -99 -99 -99
000 000 000 000 000 000 000 000 000 000 000 000 -99 -99 000 000 000 000 000 000 000 -99 -99 000 000 000 000 -99 -99 -99 -99
000 000 000 000 000 000 000 000 000 000 000 000 000 -99 000 000 000 000 000 000 000 000 -99 -99 000 000 000 -99 -99 000 -99
000 000 000 000 000 000 000 000 000 000 000 000 000 000 -99 000 -99 000 000 000 000 000 -99 000 000 000 000 -99 000 000 000
000 000 000 000 000 000 000 000 000 000 000 000 000 000 -99 000 -99 000 000 000 000 000 -99 000 000 000 000 000 000 000 000
000 000 000 000 000 000 000 000 000 000 000 000 000 000 -99 000 000 000 000 000 000 000 -99 -99 000 000 000 000 -99 000 000
000 000 000 000 000 000 000 000 000 000 000 000 000 000 -99 000 000 000 000 000 000 000 -99 -99 000 000 000 000 -99 -99 000
000 000 000 000 000 000 000 000 000 000 000 000 000 000 000 000 000 000 000 000 000 000 -99 000 000 000 000 000 -99 -99 -99
000 000 000 000 000 000 000 000 000 000 000 000 000 000 000 000 000 000 000 000 000 000 -99 000 000 000 000 000 000 000 -99
000 000 000 000 000 000 000 000 000 000 000 000 000 000 000 000 000 000 000 000 000 000 000 000 000 000 000 000 000 000 -99
000 000 000 000 000 000 000 000 000 000 000 000 000 000 000 000 000 000 000 000 000 000 000 000 000 000 000 000 000 000 000
000 000 000 000 000 000 000 000 000 000 000 000 000 000 000 000 000 000 000 000 000 000 000 000 000 000 000 -99 000 000 000
000 000 000 000 000 000 000 000 000 000 001 000 000 000 000 000 000 000 000 000 000 000 000 000 000 000 000 -99 000 000 000
000 000 000 000 000 000 000 000 000 000 001 000 000 000 000 000 000 000 000 000 000 000 000 -99 -99 -99 -99 -99 000 000 -99
000 000 000 000 000 000 000 000 000 001 002 000 000 000 000 000 000 000 000 000 000 000 001 001 -99 -99 -99 -99 000 000 -99
000 000 000 000 000 000 000 000 000 002 002 001 001 001 000 000 000 000 000 000 000 000 001 001 -99 -99 -99 -99 001 001 002
000 000 000 000 000 000 000 000 001 004 003 003 002 001 000 000 000 000 000 000 000 001 001 -99 -99 -99 -99 -99 002 002 002
000 000 000 000 000 000 000 000 001 002 003 003 001 001 001 000 000 000 000 000 001 000 001 -99 -99 -99 -99 -99 003 003 003
000 000 000 000 000 000 000 001 001 004 008 004 003 002 001 000 000 000 000 000 001 000 001 -99 -99 -99 -99 -99 003 004 003
000 000 000 000 000 000 001 001 003 005 006 005 004 002 002 002 001 000 000 000 001 000 001 -99 -99 -99 -99 -99 003 004 003
000 000 000 000 000 000 000 004 008 006 004 003 004 003 008 006 001 000 000 000 000 000 000 -99 -99 -99 -99 002 003 005 004
000 000 000 000 000 000 002 005 010 006 004 003 005 007 010 013 004 001 000 000 000 000 -99 -99 -99 003 004 003 004 007 005
000 000 000 000 000 000 002 006 008 006 003 004 014 026 054 030 006 002 000 000 000 000 -99 001 -99 002 005 003 005 006 005
000 000 000 000 000 000 003 006 006 003 004 007 018 051 052 030 016 004 000 000 000 000 001 001 001 002 005 004 005 005 005
000 000 000 000 001 001 004 005 006 003 004 010 019 045 050 058 011 006 000 000 000 000 001 001 001 002 005 007 005 005 005
000 000 000 000 000 001 003 005 008 007 006 013 015 025 033 035 015 011 000 000 000 001 004 001 001 002 005 010 012 006 003
000 000 000 000 000 001 004 004 005 007 012 012 010 011 025 031 029 024 000 000 000 001 005 002 000 003 006 012 021 007 003
000 000 000 000 000 001 002 002 003 005 007 007 005 011 024 029 068 012 000 000 000 006 006 003 001 005 015 016 024 008 003
000 000 000 000 000 001 002 001 002 004 006 002 004 022 069 098 068 010 000 000 000 006 007 006 001 010 026 019 015 014 017
000 000 000 000 000 001 001 001 002 003 005 008 011 121 220 098 021 000 000 000 000 003 012 011 008 010 025 018 012 028 032
000 000 000 000 001 001 001 002 003 005 004 015 066 123 249 083 007 000 000 000 000 001 011 015 010 014 021 010 021 037 047
000 000 000 000 000 000 000 001 003 002 003 014 073 118 172 031 000 000 000 000 000 006 039 026 012 011 011 015 015 033 037
-99 000 000 000 000 000 000 000 000 000 001 006 040 105 064 008 001 000 000 000 002 029 134 044 016 011 015 015 020 026 026
-99 000 000 -99 000 000 000 000 000 000 000 004 031 041 011 002 001 001 000 000 005 051 220 048 005 004 007 013 025 016 028
000 000 -99 -99 -99 -99 -99 000 -99 000 000 005 038 039 003 001 002 005 000 000 002 029 123 016 003 002 004 009 013 018 020
000 000 -99 -99 -99 -99 -99 000 000 000 001 012 022 010 000 001 006 010 001 000 002 019 008 008 002 001 001 005 012 013 019
000 -99 -99 -99 -99 -99 -99 -99 -99 000 000 002 004 002 000 001 004 005 000 000 000 003 001 001 001 000 000 002 009 010 047
-99 -99 -99 -99 -99 -99 -99 -99 -99 000 000 000 000 000 000 000 002 002 000 000 000 000 000 000 000 000 000 001 006 011 075
-99 -99 -99 -99 -99 000 -99 -99 -99 -99 000 000 000 000 000 000 001 000 000 000 000 -99 000 000 000 000 000 001 009 033 072
-99 -99 -99 -99 -99 000 000 -99 -99 -99 -99 000 000 000 000 000 000 000 000 000 -99 -99 000 000 -99 000 000 -99 010 024 060
-99 -99 -99 -99 -99 -99 -99 -99 -99 -99 -99 000 000 000 -99 -99 -99 -99 -99 -99 -99 000 000 -99 -99 -99 000 000 005 018 016
-99 -99 -99 -99 -99 -99 -99 -99 -99 -99 -99 000 000 -99 -99 -99 -99 -99 -99 -99 000 000 000 -99 -99 -99 000 000 003 006 003
-99 -99 -99 -99 -99 -99 -99 -99 -99 -99 -99 000 -99 -99 -99 -99 -99 -99 -99 -99 000 000 -99 -99 -99 -99 000 000 000 000 001
-99 -99 -99 -99 -99 -99 -99 000 000 -99 -99 -99 -99 -99 -99 -99 -99 -99 -99 -99 -99 -99 -99 -99 -99 000 000 000 000 000 000
-99 -99 -99 -99 -99 -99 000 000 000 -99 -99 -99 -99 -99 -99 -99 -99 -99 -99 -99 -99 -99 -99 -99 -99 000 -99 -99 000 -99 000
-99 -99 -99 -99 -99 -99 000 000 -99 -99 -99 -99 -99 -99 -99 -99 -99 -99 -99 -99 -99 -99 -99 -99 -99 -99 -99 -99 -99 000 000
-99 -99 -99 -99 -99 -99 -99 -99 -99 -99 -99 -99 -99 -99 -99 -99 -99 -99 -99 -99 -99 -99 -99 -99 -99 -99 -99 -99 000 000 000
-99 -99 -99 -99 -99 -99 -99 -99 -99 -99 -99 -99 -99 -99 -99 -99 -99 -99 -99 -99 -99 -99 -99 -99 -99 -99 -99 000 000 000 001
